c --- [ banner ] -------------------------------------------------------------
c 
c CaDiCaL Radically Simplified CDCL SAT Solver
c Copyright (c) 2016-2019 Armin Biere, JKU Linz
c 
c Version 1.2.1 92d72896c49b30ad2d50c8e1061ca0681cd23e60
c g++ (GCC) 8.3.1 20190223 (Red Hat 8.3.1-2) -Wall -Wextra -O3 -DNDEBUG
c Mon Dec 9 12:07:29 EST 2019 Linux istanbul 5.0.16-100.fc28.x86_64 x86_64
c 
c --- [ limit ] --------------------------------------------------------------
c 
c setting time limit to 129600 seconds real time
c 
c --- [ parsing input ] ------------------------------------------------------
c 
c reading DIMACS file from './cnfs/eqsparcl10bpwtrc10.cnf'
c opening file to read './cnfs/eqsparcl10bpwtrc10.cnf'
c found 'p cnf 2275 6766' header
c parsed 6766 clauses in 0.01 seconds process time
c closing file './cnfs/eqsparcl10bpwtrc10.cnf'
c after reading 92198 bytes 0.1 MB
c 
c --- [ options ] ------------------------------------------------------------
c 
c   --profile=4                    (different from default '2')
c 
c --- [ solving ] ------------------------------------------------------------
c 
c time measured in process time since initialization
c 
c  seconds  reductions  redundant irredundant
c         MB    restarts       trail    variables
c          level   conflicts       glue      remaining
c 
c *  0.01  4  0 0   0    0    0  0% 0 6764 2274 100%
c {  0.01  4  0 0   0    0    0  0% 0 6764 2274 100%
c i  0.04  4 25 0  28  192  179 68% 10 6764 2273 100%
c i  0.04  4 25 0  30  212  196 62% 9 6764 2272 100%
c -  0.05  5 23 1  30  303  286 64% 8 6757 2272 100%
c -  0.15  5 19 2  49  904  750 81% 8 6757 2272 100%
c }  0.17  5 18 2  49 1000  844 83% 8 6757 2272 100%
c [  0.17  5  0 2  49 1000  844  0% 0 6757 2272 100%
c O  0.17  5 15 2  49 1003  847 55% 4 6757 2272 100%
c -  0.29  5 17 3  49 1804 1292 85% 10 6757 2272 100%
c ]  0.45  5 19 3  50 3001 2393 77% 11 6757 2272 100%
c {  0.45  5 18 3  50 3001 2393 83% 8 6757 2272 100%
c -  0.46  5 18 4  50 3005 1779 83% 8 6757 2272 100%
c F  0.46  5 18 4  50 3006 1780 83% 8 6757 2272 100%
c s  0.48  5 19 4  53 3146 1912 83% 8 6757 2272 100%
c v  0.50  5 19 4  53 3146 1912 83% 8 6754 2272 100%
c w  0.51  5 19 4  53 3146 1912 83% 8 6754 2272 100%
c t  0.51  5 19 4  53 3146 1910 83% 8 6748 2272 100%
c e  0.54  6 19 4  53 3146   37 83% 8 3300 620 27%
c s  0.54  6 19 4  53 3146   37 83% 8 3266 620 27%
c 
c  seconds  reductions  redundant irredundant
c         MB    restarts       trail    variables
c          level   conflicts       glue     remaining
c 
c e  0.54  6 19 4  53 3146   36 83% 8 3265 614 27%
c -  0.68  6 19 5 235 4506 1295 84% 10 3265 614 27%
c 3  0.73  6 18 5 283 5001 1949 84% 11 3265 614 27%
c p  0.73  6 18 5 283 5001 2036 84% 11 3265 614 27%
c #  0.82  6 26 5 401 6009 2967 84% 12 3265 614 27%
c -  0.85  6 24 6 401 6306 2319 85% 12 3265 614 27%
c }  0.91  6 23 6 401 7001 2968 87% 11 3265 614 27%
c [  0.91  6 19 6 401 7001 2968 286% 11 3265 614 27%
c -  1.03  6 17 7 402 8407 2913 186% 12 3265 614 27%
c I  1.16  6 17 7 403 10010 4262 144% 13 3265 614 27%
c -  1.22  7 17 8 404 10807 3449 133% 13 3265 614 27%
c s  1.37  7 19 8 405 12791 5215 115% 13 3246 614 27%
c v  1.39  7 19 8 405 12791 5215 115% 13 3187 614 27%
c w  1.42  7 19 8 405 12791 5209 115% 13 3187 614 27%
c t  1.42  7 19 8 405 12791 5209 115% 13 3185 614 27%
c e  1.42  7 19 8 405 12791 4259 115% 13 3174 608 27%
c s  1.43  7 19 8 405 12791 4247 115% 13 3169 608 27%
c e  1.43  7 19 8 405 12791 4140 115% 13 3169 607 27%
c -  1.48  6 19 9 406 13507 3591 111% 13 3169 607 27%
c ]  1.59  6 19 9 406 15001 4960 106% 13 3169 607 27%
c 
c  seconds  reductions   redundant  irredundant
c         MB    restarts        trail     variables
c          level    conflicts       glue      remaining
c 
c {  1.59  6 23 9 406 15001 4960 87% 11 3169 607 27%
c 3  1.60  6 23 9 406 15001 5099 87% 11 3169 607 27%
c 3  1.60  6 23 9 406 15001 5147 87% 11 3169 607 27%
c p  1.60  6 23 9 406 15001 5210 87% 11 3169 607 27%
c B  1.60  6 23 9 406 15011 5220 87% 11 3169 607 27%
c -  1.73  7 21 10 521 16507 4701 82% 11 3169 607 27%
c -  2.02  6 18 11 672 19808 5256 78% 11 3169 607 27%
c W  2.14  6 18 11 799 21014 6370 77% 11 3169 607 27%
c -  2.37  7 17 12 842 23408 6467 76% 10 3169 607 27%
c s  2.70  7 16 12 842 27097 9776 74% 9 3168 607 27%
c v  2.72  7 16 12 842 27097 9776 74% 9 3164 607 27%
c w  2.77  7 16 12 842 27097 9770 74% 9 3164 607 27%
c -  2.80  7 16 13 868 27309 7662 74% 9 3164 607 27%
c F  2.89  7 16 13 990 28015 8332 74% 10 3164 607 27%
c 3  3.15  7 17 13 1320 30002 10278 75% 10 3164 607 27%
c 3  3.15  7 17 13 1320 30002 10318 75% 10 3164 607 27%
c p  3.15  7 17 13 1320 30002 10369 75% 10 3164 607 27%
c }  3.30  7 17 13 1543 31002 11279 76% 10 3164 607 27%
c [  3.30  7 19 13 1543 31002 11279 106% 13 3164 607 27%
c -  3.37  7 19 14 1543 31510 8465 105% 13 3164 607 27%
c 
c  seconds  reductions     redundant  irredundant
c         MB     restarts         trail     variables
c          level      conflicts       glue      remaining
c 
c -  3.79  7 18 15 1546 36010 8779 99% 13 3164 607 27%
c B  3.79  7 18 15 1546 36018 8786 99% 13 3164 607 27%
c -  4.19  7 18 16 1549 40810 9016 95% 13 3164 607 27%
c W  4.56  7 18 16 1550 45019 12647 93% 13 3164 607 27%
c -  4.63  7 18 17 1550 45913 9633 92% 14 3164 607 27%
c s  4.66  7 18 17 1551 46153 9819 92% 14 3164 607 27%
c w  4.73  7 18 17 1551 46153 9818 92% 14 3164 607 27%
c e  4.74  7 18 17 1551 46153 8400 92% 14 3178 562 25%
c s  4.75  7 18 17 1551 46153 8387 92% 14 3164 562 25%
c 3  5.06  7 19 17 1551 50002 11909 89% 14 3164 562 25%
c 3  5.07  7 19 17 1551 50002 11950 89% 14 3164 562 25%
c p  5.07  7 19 17 1551 50002 12003 89% 14 3164 562 25%
c -  5.19  8 20 18 1551 51314 9829 88% 15 3164 562 25%
c O  5.52  8 21 18 1552 55021 13218 86% 15 3164 562 25%
c -  5.71  8 20 19 1554 57014 10316 86% 15 3164 562 25%
c ]  6.21  8 20 19 1558 63003 15418 85% 15 3164 562 25%
c {  6.21  8 17 19 1558 63003 15418 76% 10 3164 562 25%
c -  6.22  8 17 20 1562 63015 10313 76% 10 3164 562 25%
c B  6.73  8 18 20 2332 66022 13027 76% 11 3164 562 25%
c -  7.27  9 18 21 2832 69318 12278 77% 11 3164 562 25%
c 
c  seconds  reductions      redundant  irredundant
c         MB     restarts          trail     variables
c          level      conflicts        glue      remaining
c 
c s  7.54  9 18 21 2908 71085 13812 78% 11 3160 562 25%
c v  7.56  9 18 21 2908 71085 13812 78% 11 3158 562 25%
c w  7.66  9 18 21 2908 71085 13811 78% 11 3158 562 25%
c t  7.66  9 18 21 2908 71085 13811 78% 11 3157 562 25%
c e  7.67  9 18 21 2908 71085 9909 78% 11 3174 542 24%
c s  7.69  9 18 21 2908 71085 9882 78% 11 3157 542 24%
c e  7.69  9 18 21 2908 71085 9876 78% 11 3159 541 24%
c 3  8.18  9 18 21 3434 75002 13506 76% 11 3159 541 24%
c 3  8.18  9 18 21 3434 75002 13540 76% 11 3159 541 24%
c p  8.18  9 18 21 3434 75002 13588 76% 11 3159 541 24%
c -  8.29  9 18 22 3438 75918 11797 76% 11 3159 541 24%
c W  8.47  9 17 22 3438 78024 13659 75% 11 3159 541 24%
c -  8.90 10 17 23 3756 82818 13477 72% 11 3159 541 24%
c - 10.13 11 17 24 4746 90018 15566 74% 11 3159 541 24%
c # 10.30 11 17 24 4941 91025 16497 74% 11 3159 541 24%
c - 11.36 11 18 25 5765 97518 16939 75% 12 3159 541 24%
c s 12.00 11 17 25 6146 101635 20652 75% 12 3154 541 24%
c v 12.02 11 17 25 6146 101635 20652 75% 12 3141 541 24%
c w 12.20 11 17 25 6146 101635 20649 75% 12 3141 541 24%
c 3 12.95 11 17 25 6351 105003 23922 76% 12 3141 541 24%
c 
c  seconds  reductions       redundant  irredundant
c         MB     restarts           trail     variables
c          level      conflicts         glue      remaining
c 
c 3 12.95 11 17 25 6351 105003 23945 76% 12 3141 541 24%
c p 12.96 11 17 25 6351 105003 23975 76% 12 3141 541 24%
c B 12.97 11 17 25 6351 105027 23996 76% 12 3141 541 24%
c - 13.05 12 17 26 6424 105318 18701 76% 12 3141 541 24%
c - 14.38 12 18 27 7406 113420 18996 76% 12 3141 541 24%
c W 15.15 12 17 27 7410 120028 25033 74% 11 3141 541 24%
c - 15.55 11 17 28 7761 121822 20250 74% 11 3141 541 24%
c } 16.43 11 17 28 7762 127004 24555 75% 11 3141 541 24%
c [ 16.43 11 20 28 7762 127004 24555 85% 15 3141 541 24%
c - 16.94 13 19 29 7762 130522 21152 85% 14 3141 541 24%
c B 17.67 13 18 29 7767 136030 25695 84% 14 3141 541 24%
c s 17.85 13 18 29 7768 137162 26465 84% 14 3138 541 24%
c w 18.10 13 18 29 7768 137162 26461 84% 14 3138 541 24%
c e 18.12 13 18 29 7768 137162 9782 84% 14 3382 457 20%
c s 18.14 13 18 29 7768 137162 9732 84% 14 3366 457 20%
c e 18.14 13 18 29 7768 137162 9221 84% 14 3387 449 20%
c - 18.33 13 18 30 7769 139523 8879 90% 14 3387 449 20%
c 3 18.37 13 18 30 7769 140003 9702 89% 14 3387 449 20%
c 3 18.37 13 18 30 7769 140003 9750 89% 14 3387 449 20%
c 2 18.37 13 18 30 7769 140003 9740 89% 14 3387 449 20%
c 
c  seconds  reductions      redundant  irredundant
c         MB     restarts          trail     variables
c          level      conflicts        glue      remaining
c 
c p 18.38 13 18 30 7769 140003 9767 89% 14 3387 449 20%
c - 19.19 13 18 31 7770 148823 12285 90% 14 3387 449 20%
c W 19.65 13 17 31 7771 153032 15002 90% 13 3387 449 20%
c - 20.20 13 17 32 7771 158423 14200 90% 14 3387 449 20%
c - 21.27 13 17 33 7772 168323 15174 89% 13 3387 449 20%
c I 21.58 13 17 33 7774 171033 16860 89% 13 3387 449 20%
c - 22.21 13 17 34 7778 178524 15827 89% 13 3387 449 20%
c 3 22.34 13 17 34 7778 180003 17114 89% 13 3387 449 20%
c p 22.34 13 17 34 7778 180003 17252 89% 13 3387 449 20%
c s 22.71 13 17 34 7781 183806 19816 89% 13 3368 449 20%
c v 22.73 13 17 34 7781 183806 19816 89% 13 3356 449 20%
c w 22.96 13 17 34 7781 183806 19813 89% 13 3356 449 20%
c e 22.96 13 17 34 7781 183806 19776 89% 13 3360 448 20%
c s 23.01 13 17 34 7781 183806 19741 89% 13 3356 448 20%
c - 23.49 13 17 35 7785 189026 17534 88% 13 3356 448 20%
c B 23.58 13 17 35 7785 190034 18318 88% 13 3356 448 20%
c - 24.59 13 16 36 7786 199826 17697 88% 13 3356 448 20%
c W 25.75 13 16 36 7793 210035 25161 88% 13 3356 448 20%
c - 25.86 13 16 37 7793 210926 18364 88% 13 3356 448 20%
c - 27.05 14 16 38 7800 222326 19543 88% 13 3356 448 20%
c 
c  seconds  reductions       redundant  irredundant
c         MB     restarts           trail     variables
c          level      conflicts         glue      remaining
c 
c 3 27.34 14 16 38 7800 225003 22043 88% 13 3356 448 20%
c 3 27.34 14 16 38 7800 225003 22150 88% 13 3356 448 20%
c p 27.35 14 16 38 7800 225003 22190 88% 13 3356 448 20%
c O 28.08 14 16 38 7801 231036 26883 88% 13 3356 448 20%
c - 28.39 14 16 39 7801 234026 20830 88% 13 3356 448 20%
c s 28.59 14 16 39 7802 236100 22477 88% 13 3356 448 20%
c v 28.61 14 16 39 7802 236100 22477 88% 13 3356 448 20%
c w 28.77 14 16 39 7802 236100 22471 88% 13 3356 448 20%
c e 28.78 14 16 39 7802 236100 16330 88% 13 3514 421 19%
c s 28.80 14 16 39 7802 236100 16251 88% 13 3510 421 19%
c e 28.81 14 16 39 7802 236100 16228 88% 13 3518 420 18%
c - 29.49 14 16 40 7802 246027 18076 87% 13 3518 420 18%
c B 30.00 14 16 40 7803 253037 24002 87% 13 3518 420 18%
c ] 30.16 14 16 40 7803 255005 25412 87% 13 3518 420 18%
c { 30.16 14 17 40 7803 255005 25412 102% 11 3518 420 18%
c - 30.58 16 17 41 8275 258328 20795 101% 11 3518 420 18%
c - 31.97 14 17 42 9658 270929 23606 97% 11 3518 420 18%
c 3 32.46 14 17 42 10281 275003 27400 96% 12 3518 420 18%
c 3 32.47 14 17 42 10281 275003 27461 96% 12 3518 420 18%
c p 32.47 14 17 42 10281 275003 27479 96% 12 3518 420 18%
c 
c  seconds  reductions        redundant  irredundant
c         MB      restarts           trail     variables
c          level       conflicts         glue      remaining
c 
c F 32.62 14 17 42 10520 276039 28425 96% 12 3518 420 18%
c - 33.68 16 17 43 11087 283830 25610 95% 12 3518 420 18%
c - 35.54 14 16 44 11191 297032 23862 93% 11 3518 420 18%
c s 35.64 14 16 44 11191 297428 23759 93% 11 3516 420 18%
c v 35.66 14 16 44 11191 297428 23759 93% 11 3494 420 18%
c w 35.94 14 16 44 11191 297428 23747 93% 11 3494 420 18%
c e 35.94 14 16 44 11191 297428 23612 93% 11 3495 418 18%
c s 36.00 14 16 44 11191 297428 23510 93% 11 3495 418 18%
c B 36.37 14 16 44 11630 300041 25759 93% 11 3495 418 18%
c - 37.63 15 15 45 11811 310534 24169 92% 11 3495 418 18%
c - 39.32 18 15 46 12639 324334 24945 91% 11 3495 418 18%
c W 39.49 18 15 46 12818 325042 25558 91% 11 3495 418 18%
c 3 40.08 18 15 46 13080 330004 29974 91% 11 3495 418 18%
c 3 40.08 18 15 46 13080 330004 30060 91% 11 3495 418 18%
c p 40.09 18 15 46 13080 330004 30074 91% 11 3495 418 18%
c - 41.24 18 15 47 14287 338434 29306 90% 11 3495 418 18%
c # 42.65 18 14 47 14310 351043 38639 90% 11 3495 418 18%
c - 42.92 18 15 48 14655 352836 28695 90% 11 3495 418 18%
c s 44.76 18 15 48 17006 364830 38766 89% 11 3493 418 18%
c v 44.79 18 15 48 17006 364830 38766 89% 11 3484 418 18%
c 
c  seconds  reductions        redundant  irredundant
c         MB      restarts           trail     variables
c          level       conflicts         glue      remaining
c 
c w 45.41 18 15 48 17006 364830 38757 89% 11 3484 418 18%
c e 45.42 18 15 48 17006 364830 12663 89% 11 3952 374 16%
c s 45.45 18 15 48 17006 364830 12583 89% 11 3903 374 16%
c e 45.46 15 15 48 17006 364830 12045 89% 11 3925 372 16%
c - 45.71 15 15 49 17578 367537 12531 88% 12 3925 372 16%
c B 46.42 15 15 49 18006 378045 21574 86% 11 3925 372 16%
c - 46.79 16 15 50 18350 382537 22521 85% 11 3925 372 16%
c 3 47.49 16 15 50 18916 390004 28933 83% 11 3925 372 16%
c 3 47.50 16 15 50 18916 390004 28969 83% 11 3925 372 16%
c p 47.50 16 15 50 18916 390004 28980 83% 11 3925 372 16%
c - 48.41 18 15 51 20135 397837 27922 83% 11 3925 372 16%
c W 49.48 18 15 51 20364 406047 33694 82% 11 3925 372 16%
c - 50.11 18 15 52 20580 413437 28074 81% 11 3925 372 16%
c - 51.64 18 14 53 22122 429338 29377 78% 11 3925 372 16%
c F 52.28 18 14 53 23145 435048 34022 77% 11 3925 372 16%
c i 52.46 18 15 53 23404 436367 35154 77% 11 3925 371 16%
c - 53.58 19 15 54 25056 445538 33064 77% 11 3921 371 16%
c s 53.75 19 15 54 25147 446414 33138 76% 11 3907 371 16%
c v 53.77 19 15 54 25147 446414 33138 76% 11 3840 371 16%
c w 54.21 19 15 54 25147 446414 33089 76% 11 3840 371 16%
c 
c  seconds  reductions        redundant  irredundant
c         MB      restarts           trail     variables
c          level       conflicts         glue      remaining
c 
c t 54.21 19 15 54 25147 446414 33089 76% 11 3838 371 16%
c e 54.22 19 15 54 25147 446414 30904 76% 11 3871 367 16%
c s 54.28 19 15 54 25147 446414 30701 76% 11 3869 367 16%
c 3 55.37 19 15 54 26405 455004 38052 76% 12 3869 367 16%
c 3 55.37 19 15 54 26405 455004 38109 76% 12 3869 367 16%
c p 55.37 19 15 54 26405 455004 38125 76% 12 3869 367 16%
c i 55.54 19 15 54 26515 456451 39288 76% 12 3869 366 16%
c - 56.37 22 15 55 27429 462040 34318 76% 12 3862 366 16%
c i 56.41 22 15 55 27429 462184 34346 76% 12 3862 365 16%
c B 56.81 22 15 55 27884 465050 36048 76% 12 3862 365 16%
c - 58.49 19 15 56 28919 478840 34703 76% 12 3840 365 16%
c - 60.82 20 16 57 31332 495940 35749 76% 12 3840 365 16%
c W 60.94 20 16 57 31332 496051 35855 76% 12 3840 365 16%
c } 62.72 20 16 57 33215 511005 47820 75% 12 3840 365 16%
c [ 62.72 20 16 57 33215 511005 47820 87% 13 3840 365 16%
c - 62.95 20 16 58 33215 513341 36736 86% 13 3840 365 16%
c d 63.74 20 16 58 33215 525007 44844 84% 13 3819 363 16%
c 3 63.74 20 16 58 33215 525007 45172 84% 13 3819 363 16%
c 3 63.74 20 16 58 33215 525007 45246 84% 13 3819 363 16%
c p 63.75 20 16 58 33215 525007 45265 84% 13 3819 363 16%
c 
c  seconds  reductions        redundant  irredundant
c         MB      restarts           trail     variables
c          level       conflicts         glue      remaining
c 
c W 64.16 20 16 58 33215 528052 47466 84% 13 3819 363 16%
c - 64.42 20 16 59 33215 531041 35354 83% 13 3819 363 16%
c s 64.78 20 16 59 33215 534765 37917 83% 13 3806 363 16%
c v 64.80 20 16 59 33215 534765 37917 83% 13 3774 363 16%
c w 65.36 20 16 59 33215 534765 37905 83% 13 3774 363 16%
c e 65.37 20 16 59 33215 534765 37830 83% 13 3768 361 16%
c s 65.46 20 16 59 33215 534765 37677 83% 13 3765 361 16%
c - 66.65 20 15 60 33222 549042 34384 81% 13 3765 361 16%
c I 67.57 20 15 60 33229 561053 42785 80% 13 3765 361 16%
c - 68.09 20 15 61 33230 567343 33675 79% 13 3765 361 16%
c - 69.60 20 15 62 33238 585943 33284 78% 13 3765 361 16%
c B 70.34 20 15 62 33244 595055 39576 77% 13 3765 361 16%
c 3 70.70 20 15 62 33245 600008 43749 76% 13 3765 361 16%
c 3 70.70 20 15 62 33245 600008 43998 76% 13 3765 361 16%
c p 70.71 20 15 62 33245 600008 44024 76% 13 3765 361 16%
c - 71.08 20 15 63 33245 604845 35178 76% 13 3765 361 16%
c - 72.59 22 15 64 33248 624046 35919 75% 13 3765 361 16%
c W 73.19 22 15 64 33252 630056 40021 74% 12 3765 361 16%
c - 74.33 22 15 65 33259 643546 35310 74% 12 3765 361 16%
c - 76.15 22 14 66 33267 663347 34752 73% 12 3765 361 16%
c 
c  seconds  reductions        redundant  irredundant
c         MB      restarts           trail     variables
c          level       conflicts         glue      remaining
c 
c O 76.40 22 14 66 33268 666057 36246 73% 12 3765 361 16%
c 3 77.80 22 14 66 33275 680011 44135 73% 12 3765 361 16%
c 3 77.80 22 14 66 33275 680011 44228 73% 12 3765 361 16%
c p 77.81 22 14 66 33275 680011 44253 73% 12 3765 361 16%
c - 78.11 22 14 67 33276 683447 33053 73% 12 3765 361 16%
c B 79.99 22 14 67 33277 703058 44723 73% 12 3765 361 16%
c - 80.09 22 14 68 33277 703848 33519 73% 12 3765 361 16%
c - 82.32 22 14 69 33278 724549 34443 73% 12 3765 361 16%
c W 84.33 22 14 69 33279 741060 45713 73% 12 3765 361 16%
c - 84.85 22 14 70 33279 745549 35322 73% 12 3765 361 16%
c 3 86.80 22 14 70 33279 765012 48195 73% 12 3765 361 16%
c p 86.81 22 14 70 33279 765012 48441 73% 12 3765 361 16%
c - 87.03 22 14 71 33279 766849 36571 73% 12 3765 361 16%
c I 88.46 22 14 71 33279 780062 44507 73% 12 3765 361 16%
c - 89.04 22 14 72 33279 788450 36619 73% 12 3765 361 16%
c - 90.82 22 14 73 33284 810350 37713 72% 12 3765 361 16%
c B 91.55 22 14 73 33289 820063 44526 72% 12 3765 361 16%
c - 92.55 22 14 74 33294 832553 37863 72% 12 3765 361 16%
c 3 94.34 22 14 74 33305 855012 53694 72% 12 3765 361 16%
c 3 94.34 22 14 74 33305 855012 53897 72% 12 3765 361 16%
c 
c  seconds  reductions        redundant  irredundant
c         MB      restarts           trail     variables
c          level       conflicts         glue      remaining
c 
c p 94.35 22 14 74 33305 855012 53924 72% 12 3765 361 16%
c - 94.37 22 14 75 33305 855053 39070 72% 12 3765 361 16%
c W 95.06 22 14 75 33308 861065 43156 72% 12 3765 361 16%
c - 96.86 17 14 76 33310 877854 38954 72% 12 3765 361 16%
c - 98.99 17 14 77 33318 900954 40063 71% 12 3765 361 16%
c O 99.16 17 14 77 33320 903067 41521 71% 12 3765 361 16%
c - 101.43 17 14 78 33328 924355 39875 72% 12 3765 361 16%
c B 103.93 17 14 78 33340 946069 53080 72% 12 3765 361 16%
c - 104.14 17 14 79 33340 948055 40093 72% 12 3765 361 16%
c 3 104.33 17 14 79 33340 950012 41847 72% 12 3765 361 16%
c p 104.33 17 14 79 33340 950012 42060 72% 12 3765 361 16%
c - 106.35 17 14 80 33342 972055 42777 72% 12 3765 361 16%
c W 108.38 17 14 80 33342 990070 55236 72% 12 3765 361 16%
c - 109.03 17 14 81 33342 996356 42656 72% 12 3765 361 16%
c - 111.71 17 14 82 33353 1020958 43172 71% 12 3765 361 16%
c s 111.81 17 14 82 33353 1020958 42928 71% 12 3763 361 16%
c v 111.84 17 14 82 33353 1020958 42928 71% 12 3757 361 16%
c w 113.45 17 14 82 33353 1020958 42892 71% 12 3757 361 16%
c ] 113.66 17 14 82 33355 1023006 44167 71% 12 3757 361 16%
c { 113.66 17 16 82 33355 1023006 44167 75% 12 3757 361 16%
c 
c  seconds   reductions         redundant  irredundant
c          MB      restarts            trail     variables
c           level        conflicts         glue      remaining
c 
c # 114.84 17 15 82 33607 1035071 52889 73% 12 3757 361 16%
c - 116.43 23 15 83 35074 1045858 48171 73% 12 3757 361 16%
c 3 116.97 23 15 83 35532 1050013 52141 73% 12 3757 361 16%
c p 116.98 23 15 83 35532 1050013 52269 73% 12 3757 361 16%
c - 118.95 23 15 84 35757 1071059 49832 73% 12 3757 361 16%
c B 120.01 23 14 84 36023 1081072 56498 73% 11 3757 361 16%
c - 122.08 23 14 85 37719 1096559 52269 72% 12 3757 361 16%
c - 125.32 23 14 86 39956 1122359 54253 72% 12 3757 361 16%
c W 126.30 23 14 86 40587 1128073 58573 72% 12 3757 361 16%
c - 129.03 23 14 87 41718 1148459 54719 73% 12 3757 361 16%
c 3 129.71 23 14 87 41865 1155015 59686 72% 12 3757 361 16%
c p 129.72 23 14 87 41865 1155015 59910 72% 12 3757 361 16%
c - 131.77 19 14 88 42087 1174860 53213 72% 11 3757 361 16%
c F 131.90 19 14 88 42087 1176074 53824 72% 11 3757 361 16%
c - 135.82 25 14 89 45625 1201560 56739 73% 12 3757 361 16%
c B 138.78 25 14 89 47541 1225075 74938 71% 12 3757 361 16%
c - 139.43 25 14 90 47697 1228561 60620 71% 12 3757 361 16%
c - 143.48 26 14 91 51690 1255861 63005 71% 12 3757 361 16%
c 3 144.55 26 14 91 52025 1265016 70705 71% 12 3757 361 16%
c p 144.56 26 14 91 52025 1265016 70747 71% 12 3757 361 16%
c 
c  seconds   reductions         redundant  irredundant
c          MB      restarts            trail     variables
c           level        conflicts         glue      remaining
c 
c W 146.67 26 15 91 53817 1275077 78769 71% 12 3757 361 16%
c - 147.93 26 15 92 54297 1283462 64569 71% 12 3757 361 16%
c - 152.23 26 15 93 56111 1311362 64642 72% 12 3757 361 16%
c # 154.04 26 15 93 57069 1326078 74845 71% 12 3757 361 16%
c - 155.63 22 14 94 57343 1339562 62603 71% 12 3757 361 16%
c - 159.27 27 14 95 58375 1368064 62138 70% 11 3757 361 16%
c B 160.56 27 13 95 58898 1378081 68433 69% 11 3757 361 16%
c 3 160.87 27 13 95 59378 1380016 70173 69% 11 3757 361 16%
c p 160.89 27 13 95 59378 1380016 70286 69% 11 3757 361 16%
c - 163.98 32 14 96 62628 1396865 67158 70% 12 3757 361 16%
c - 168.03 32 14 97 64706 1425965 69708 70% 12 3757 361 16%
c W 168.94 32 14 97 64991 1431082 73181 70% 11 3757 361 16%
c - 173.06 32 14 98 67781 1455365 70768 70% 12 3757 361 16%
c - 176.84 32 12 99 67781 1485065 66579 66% 10 3757 361 16%
c F 176.85 32 12 99 67781 1485083 66587 66% 10 3757 361 16%
c 3 179.36 32 13 99 71077 1500018 78822 67% 11 3757 361 16%
c 3 179.36 32 13 99 71077 1500018 78934 67% 11 3757 361 16%
c p 179.38 32 13 99 71077 1500018 78975 67% 11 3757 361 16%
c - 182.05 32 13 100 72017 1515066 77432 68% 11 3757 361 16%
c B 185.90 32 13 100 74731 1540084 94961 69% 11 3757 361 16%
c 
c  seconds    reductions         redundant  irredundant
c          MB       restarts            trail     variables
c           level         conflicts         glue      remaining
c 
c - 186.93 38 13 101 75849 1545367 74872 69% 11 3757 361 16%
c s 187.24 38 13 101 75849 1545367 71786 69% 11 3751 361 16%
c v 187.27 38 13 101 75849 1545367 71786 69% 11 3741 361 16%
c w 192.41 38 13 101 75849 1545367 71689 69% 11 3741 361 16%
c t 192.41 38 13 101 75849 1545367 71688 69% 11 3741 361 16%
c e 192.42 38 13 101 75849 1545367 68027 69% 11 3770 356 16%
c s 192.74 38 13 101 75849 1545367 66829 69% 11 3754 356 16%
c - 197.75 32 14 102 79739 1575968 75384 70% 12 3754 356 16%
c W 200.55 32 14 102 79971 1596086 88245 70% 11 3754 356 16%
c - 202.29 36 14 103 81017 1606870 71843 70% 11 3754 356 16%
c 3 204.71 36 13 103 81734 1625018 84585 69% 11 3754 356 16%
c 3 204.72 36 13 103 81734 1625018 84643 69% 11 3754 356 16%
c p 204.74 36 13 103 81734 1625018 84663 69% 11 3754 356 16%
c - 207.34 23 13 104 82346 1638070 72225 69% 11 3754 356 16%
c # 209.86 23 13 104 82346 1653087 80164 67% 11 3754 356 16%
c - 212.85 27 12 105 83225 1669570 70522 68% 11 3754 356 16%
c - 219.27 33 12 106 86096 1701371 75738 67% 11 3754 356 16%
c B 221.46 33 13 106 88053 1711089 83214 68% 11 3754 356 16%
c - 226.26 39 13 107 90185 1733471 78825 66% 11 3754 356 16%
c 3 230.84 39 13 107 92411 1755018 94054 66% 11 3754 356 16%
c 
c  seconds    reductions         redundant  irredundant
c          MB       restarts            trail     variables
c           level         conflicts         glue      remaining
c 
c p 230.87 39 13 107 92411 1755018 94122 66% 11 3754 356 16%
c - 233.38 39 13 108 92996 1765872 79785 65% 11 3754 356 16%
c W 234.51 39 13 108 93049 1770091 82855 65% 11 3754 356 16%
c - 240.67 39 13 109 96599 1798575 82149 67% 11 3754 356 16%
c F 247.37 39 13 109 99114 1830093 103452 68% 11 3754 356 16%
c - 247.82 31 13 110 99355 1831576 82058 68% 11 3754 356 16%
c i 249.33 31 13 110 100174 1838716 87146 68% 11 3754 355 16%
c s 249.90 31 13 110 100174 1838716 85025 68% 11 3754 355 16%
c v 249.94 31 13 110 100174 1838716 85025 68% 11 3742 355 16%
c w 255.41 31 13 110 100174 1838716 84342 68% 11 3742 355 16%
c - 261.66 31 13 111 103833 1864876 83901 67% 11 3738 355 16%
c 3 266.25 31 13 111 105957 1890019 101425 65% 11 3738 355 16%
c p 266.28 31 13 111 105957 1890019 101485 65% 11 3738 355 16%
c B 266.54 31 13 111 105973 1891095 102467 65% 11 3738 355 16%
c - 268.78 30 13 112 107577 1898476 85448 65% 11 3738 355 16%
c - 275.60 35 12 113 107758 1932377 78604 64% 10 3738 355 16%
c i 278.79 35 11 113 107758 1948955 86027 64% 10 3738 354 16%
c W 280.36 35 11 113 108627 1953097 68571 64% 10 3732 354 16%
c s 281.18 35 11 113 108909 1954193 67441 64% 10 3723 354 16%
c v 281.22 35 11 113 108909 1954193 67441 64% 10 3721 354 16%
c 
c  seconds    reductions          redundant  irredundant
c          MB       restarts             trail     variables
c           level          conflicts         glue      remaining
c 
c w 282.50 35 11 113 108909 1954193 67409 64% 10 3721 354 16%
c t 282.50 35 11 113 108909 1954193 67407 64% 10 3721 354 16%
c - 285.39 35 12 114 111884 1966577 68710 65% 10 3721 354 16%
c - 292.48 35 13 115 116468 2001077 80452 66% 11 3721 354 16%
c # 294.86 35 12 115 116594 2016099 89992 67% 11 3721 354 16%
c 3 298.08 35 12 115 118477 2030019 100340 67% 11 3721 354 16%
c p 298.11 35 12 115 118477 2030019 100415 67% 11 3721 354 16%
c - 299.73 41 13 116 119533 2035877 85473 67% 11 3721 354 16%
c } 302.57 41 13 116 121705 2047007 93972 67% 11 3721 354 16%
c [ 302.57 41 14 116 121705 2047007 93972 71% 12 3721 354 16%
c - 307.08 35 13 117 121714 2070977 85087 71% 11 3721 354 16%
c I 308.71 35 13 117 121720 2080102 90015 71% 11 3721 354 16%
c - 313.04 36 13 118 121723 2106378 80117 71% 11 3721 354 16%
c - 319.30 36 13 119 121738 2142079 78254 70% 11 3721 354 16%
c B 319.85 36 13 119 121740 2145103 80030 70% 11 3721 354 16%
c 3 325.39 36 13 119 121753 2175020 98136 70% 11 3721 354 16%
c p 325.42 36 13 119 121753 2175020 98427 70% 11 3721 353 16%
c s 325.89 36 13 119 121753 2175020 97349 70% 11 3721 353 16%
c w 330.74 36 13 119 121753 2175020 97200 70% 11 3715 353 16%
c - 331.53 36 13 120 121754 2178079 78338 70% 11 3715 353 16%
c 
c  seconds    reductions          redundant  irredundant
c          MB       restarts             trail     variables
c           level          conflicts         glue      remaining
c 
c W 338.61 36 12 120 121755 2211106 98238 69% 11 3715 353 16%
c - 339.29 36 12 121 121755 2214379 77106 69% 11 3715 353 16%
c - 345.91 36 12 122 121756 2250979 77936 69% 11 3715 353 16%
c O 351.12 36 11 122 121756 2278107 91852 70% 10 3715 353 16%
c - 353.20 36 12 123 121756 2287881 75614 70% 10 3715 353 16%
c s 356.69 36 12 123 121757 2304054 83547 70% 11 3703 353 16%
c v 356.73 36 12 123 121757 2304054 83547 70% 11 3669 353 16%
c w 359.23 36 12 123 121757 2304054 83475 70% 11 3669 353 16%
c 3 363.27 36 12 123 121757 2325021 97255 70% 11 3669 353 16%
c 2 363.29 36 12 123 121757 2325021 97344 70% 11 3669 353 16%
c p 363.30 36 12 123 121757 2325021 97358 70% 11 3669 353 16%
c - 363.36 36 12 124 121757 2325081 77545 70% 11 3669 353 16%
c B 366.86 36 12 124 121757 2346110 90752 69% 11 3669 353 16%
c - 369.57 36 12 125 121757 2362581 78431 69% 11 3669 353 16%
c - 376.47 36 11 126 121757 2400381 76607 69% 10 3669 353 16%
c W 380.05 36 11 126 121757 2415111 84900 70% 10 3669 353 16%
c - 384.02 36 11 127 121767 2438481 75561 70% 10 3669 353 16%
c - 390.08 36 10 128 121786 2476882 76441 70% 10 3669 353 16%
c 3 390.58 36 10 128 121786 2480021 78831 70% 10 3669 353 16%
c p 390.59 36 10 128 121786 2480021 78921 70% 10 3669 353 16%
c 
c  seconds    reductions          redundant  irredundant
c          MB       restarts             trail     variables
c           level          conflicts         glue      remaining
c 
c I 391.31 36 11 128 121787 2485114 82061 70% 10 3669 353 16%
c - 395.54 36 11 129 121795 2515584 81226 70% 10 3669 353 16%
c - 401.55 36 11 130 121813 2554585 79238 69% 10 3669 353 16%
c B 401.80 36 11 130 121815 2556117 80079 69% 10 3669 353 16%
c i 402.66 36 11 130 121817 2561614 82760 69% 10 3669 351 15%
c s 402.93 36 11 130 121817 2561614 81659 69% 10 3663 351 15%
c v 402.96 36 11 130 121817 2561614 81659 69% 10 3451 351 15%
c w 404.66 36 11 130 121817 2561614 77955 69% 10 3451 351 15%
c t 404.67 36 11 130 121817 2561614 77942 69% 10 3451 351 15%
c e 404.68 36 11 130 121817 2561614 61557 69% 10 3546 336 15%
c s 404.88 36 11 130 121817 2561614 59047 69% 10 3451 336 15%
c e 404.90 36 11 130 121817 2561614 49450 69% 10 3465 334 15%
c - 408.53 36 11 131 121820 2593886 58999 87% 10 3465 334 15%
c i 411.76 36 10 131 121821 2621234 74475 86% 9 3465 329 14%
c W 413.10 36 10 131 121826 2628118 33341 87% 9 3015 329 14%
c - 413.65 36 10 132 121828 2633487 33862 87% 9 3015 329 14%
c i 413.66 36 10 132 121828 2633555 33883 87% 9 3015 324 14%
c i 414.08 36 10 132 121831 2637719 36127 87% 9 3015 317 14%
c i 414.25 36 10 132 121833 2639427 37047 87% 9 3015 311 14%
c d 414.32 36 10 132 121833 2640022 13997 87% 9 2400 309 14%
c 
c  seconds    reductions          redundant irredundant
c          MB       restarts             trail    variables
c           level          conflicts         glue     remaining
c 
c d 414.32 36 10 132 121833 2640022 13583 87% 9 2343 287 13%
c 3 414.32 36 10 132 121833 2640022 14987 87% 9 2342 287 13%
c 3 414.32 36 10 132 121833 2640022 15328 87% 9 2342 287 13%
c 2 414.33 36 10 132 121833 2640022 15269 87% 9 2325 286 13%
c p 414.33 36 10 132 121833 2640022 15500 87% 9 2325 284 12%
c i 414.35 36 10 132 121833 2640341 15659 87% 9 2325 278 12%
c i 414.40 36 10 132 121833 2640856 15872 87% 9 2325 263 12%
c i 414.42 36 10 132 121833 2641113 15997 87% 9 2325 261 11%
c i 414.43 36 10 132 121833 2641300 16074 87% 9 2325 256 11%
c i 414.43 36 10 132 121833 2641327 16081 87% 9 2325 239 11%
c i 414.44 36 10 132 121833 2641338 16084 87% 9 2325 220 10%
c i 414.44 18 10 132 121833 2641343 6015 56% 9 1339 193  8%
c i 414.44 18 10 132 121833 2641345 6016 58% 9 1339 180  8%
c ] 414.44 18 10 132 121833 2641347 6016 57% 9 1339 108  5%
c 0 414.44 18 10 132 121833 2641347 6016 57% 9 1339 108  5%
c 
c --- [ result ] -------------------------------------------------------------
c 
s UNSATISFIABLE
c 
c --- [ run-time profiling ] -------------------------------------------------
c 
c process time taken by individual solving procedures
c (percentage relative to process time for solving)
c 
c       383.35   92.50% search
c       304.67   73.52% propagate
c       214.80   51.83% unstable
c       162.91   39.31% stable
c        73.40   17.71% analyze
c        31.08    7.50% simplify
c        25.94    6.26% vivify
c        25.04    6.04% bump
c        22.05    5.32% minimize
c         5.64    1.36% walk
c         4.27    1.03% subsume
c         3.79    0.91% decide
c         1.76    0.42% reduce
c         1.40    0.34% collect
c         0.37    0.09% connect
c         0.26    0.06% decompose
c         0.23    0.06% elim
c         0.18    0.04% probe
c         0.18    0.04% restart
c         0.17    0.04% ternary
c         0.02    0.01% transred
c         0.02    0.00% compact
c         0.01    0.00% parse
c         0.01    0.00% backward
c         0.01    0.00% deduplicate
c         0.00    0.00% copy
c         0.00    0.00% lucky
c   =================================
c       414.43  100.00% solve
c 
c last line shows process time for solving
c (percentage relative to total process time)
c 
c --- [ statistics ] ---------------------------------------------------------
c 
c chronological:            198906         7.53 %  of conflicts
c conflicts:               2641347      6373.46    per second
c decisions:               3559555      8589.05    per second
c eliminated:                 1928        84.75 %  of all variables
c fixed:                       213         9.36 %  of all variables
c learned:                 2614528        98.98 %  per conflict
c minimized:              85388040        56.30 %  learned literals
c propagations:          319591182         0.77 M  per second
c reduced:                 1585626        60.03 %  per conflict
c rephased:                     72     36685.38    interval
c restarts:                 121833        21.68    interval
c stabilizing:                   6        48.32 %  of conflicts
c substituted:                  26         1.14 %  of all variables
c subsumed:                 833215        15.49 %  of all clauses
c strengthened:             121585         2.26 %  of all clauses
c ternary:                   17009         1.50 %  of resolved
c vivified:                  39583         0.74 %  of all clauses
c walked:                       23    114841.17    interval
c weakened:                   7116         2.92    average size
c 
c seconds are measured in process time for solving
c 
c --- [ resources ] ----------------------------------------------------------
c 
c total process time since initialization:       414.44    seconds
c total real time since initialization:          420.56    seconds
c maximum resident set size of process:           45.04    MB
c 
c --- [ shutting down ] ------------------------------------------------------
c 
c exit 20
